Maximize
score: + 11 c0 + 4 c1 + 9 c2 - 0.111 s0 - 0.0 s1 - 1.0 s2

Subject To
index_0: 3 s0 + 4 s1 + 4 s2 - c0 >= 0
index_1: 2 s0 + 2 s1 - c1 >= 0
index_2: 1 s0 + 1 s1 + 1 s2 - c2 >= 0
length: 24 s0 + 22 s1 + 40 s2 <= 43



Binary
c0
c1
c2
s0
s1
s2
End